NAME : problems/40-tsp/instance-14.tsp
COMMENT : No Comment
TYPE : TSP
DIMENSION: 40
EDGE_WEIGHT_TYPE : EUC_2D
NODE_COORD_SECTION
1 1962 9733 
2 425 9070 
3 4575 7300 
4 7242 3372 
5 8490 2514 
6 7915 9454 
7 9595 9861 
8 6095 3726 
9 8489 6796 
10 6377 1159 
11 1428 4250 
12 2969 4413 
13 6001 4680 
14 9613 6498 
15 7508 3916 
16 7962 9031 
17 2334 3868 
18 7419 6954 
19 232 4530 
20 5779 9325 
21 9251 7431 
22 3701 2796 
23 4727 557 
24 4071 4436 
25 5498 5946 
26 9096 4619 
27 4201 9782 
28 5554 5703 
29 1842 3037 
30 3596 7587 
31 3641 4330 
32 1748 1849 
33 7058 1199 
34 6363 3686 
35 4973 9948 
36 1085 5975 
37 7800 2114 
38 3577 7074 
39 68 4898 
40 2925 8500 
EOF
